NAME 
ROWS
 N  OBJ
 L  R0      
 E  R1      
 E  R2      
 E  R3      
 E  R4      
 E  R5      
 E  R6      
 E  R7      
 E  R8      
 E  R9      
 E  R10     
COLUMNS
    MARKER    'MARKER'                 'INTORG'
    I0(6)     OBJ       -72
    I0(6)     R0        -133
    I0(6)     R1        8
    I0(6)     R2        4
    I0(6)     R3        19
    I0(6)     R4        11
    I0(6)     R10       1
    I1(5)     OBJ       -6
    I1(5)     R0        -61
    I1(5)     R2        16
    I1(5)     R3        19
    I1(5)     R4        14
    I1(5)     R10       1
    I2(4)     OBJ       184
    I2(4)     R0        122
    I2(4)     R3        7
    I2(4)     R4        8
    I2(4)     R10       1
    I3(6)     OBJ       193
    I3(6)     R0        -89
    I3(6)     R1        4
    I3(6)     R2        17
    I3(6)     R3        -1
    I3(6)     R4        3
    I3(6)     R10       1
    MARKER    'MARKER'                 'INTEND'
    C4(9)     OBJ       9
    C4(9)     R0        -3
    C4(9)     R1        18
    C4(9)     R3        16
    C4(9)     R4        8
    C4(9)     R5        7
    C4(9)     R6        17
    C4(9)     R7        9
    C4(9)     R8        5
    C4(9)     R9        17
    C5(6)     R0        5
    C5(6)     R3        2
    C5(6)     R4        16
    C5(6)     R5        18
    C5(6)     R6        12
    C5(6)     R7        4
    C6(9)     OBJ       2
    C6(9)     R0        -5
    C6(9)     R1        2
    C6(9)     R2        9
    C6(9)     R3        3
    C6(9)     R4        19
    C6(9)     R5        14
    C6(9)     R7        11
    C6(9)     R8        2
    C6(9)     R9        18
    C7(9)     OBJ       -10
    C7(9)     R0        3
    C7(9)     R1        5
    C7(9)     R2        14
    C7(9)     R3        18
    C7(9)     R5        1
    C7(9)     R6        15
    C7(9)     R7        4
    C7(9)     R8        19
    C7(9)     R9        16
    C8(7)     OBJ       -1
    C8(7)     R0        5
    C8(7)     R1        12
    C8(7)     R2        13
    C8(7)     R3        6
    C8(7)     R6        15
    C8(7)     R7        17
    C8(7)     R9        1
    C9(8)     OBJ       4
    C9(8)     R2        16
    C9(8)     R3        -1
    C9(8)     R4        10
    C9(8)     R5        2
    C9(8)     R6        18
    C9(8)     R7        18
    C9(8)     R8        8
    C9(8)     R9        7
    C10(1)    R1        1
    C11(1)    R2        1
    C12(1)    R3        1
    C13(1)    R4        1
    C14(1)    R5        1
    C15(1)    R6        1
    C16(1)    R7        1
    C17(1)    R8        1
    C18(1)    R9        1
    C19(1)    R10       1
RHS
    RHS1      R0        -127.5
    RHS1      R1        91
    RHS1      R2        52
    RHS1      R3        52
    RHS1      R4        74
    RHS1      R5        88
    RHS1      R6        91
    RHS1      R7        67
    RHS1      R8        75
    RHS1      R9        60
    RHS1      R10       1
BOUNDS
 UP BND1      I0(6)     1
 UP BND1      I1(5)     1
 UP BND1      I2(4)     1
 UP BND1      I3(6)     1
ENDATA
